VALUE 3588
2 255
3 59
4 519
5 292
6 581
7 613
8 484
9 447
21 352
59 352
1 75
175 432
229 534
75 241
255 316
292 321
316 519
175 321
241 352
365 432
432 519
365 447
292 484
352 519
21 534
229 581
255 613

